c colouring generated by benchmark framework
p edge 1283 76751
v 1 29
v 2 3
v 3 13
v 4 4
v 5 14
v 6 21
v 7 20
v 8 15
v 9 27
v 10 23
v 11 11
v 12 5
v 13 29
v 14 17
v 15 21
v 16 20
v 17 19
v 18 17
v 19 25
v 20 10
v 21 17
v 22 13
v 23 24
v 24 27
v 25 13
v 26 22
v 27 7
v 28 10
v 29 1
v 30 15
v 31 5
v 32 24
v 33 5
v 34 31
v 35 13
v 36 2
v 37 5
v 38 15
v 39 12
v 40 2
v 41 4
v 42 16
v 43 9
v 44 9
v 45 29
v 46 19
v 47 1
v 48 20
v 49 11
v 50 30
v 51 28
v 52 27
v 53 1
v 54 18
v 55 24
v 56 26
v 57 0
v 58 3
v 59 18
v 60 2
v 61 14
v 62 28
v 63 29
v 64 1
v 65 10
v 66 25
v 67 29
v 68 2
v 69 21
v 70 5
v 71 18
v 72 32
v 73 25
v 74 2
v 75 27
v 76 8
v 77 5
v 78 8
v 79 4
v 80 26
v 81 13
v 82 15
v 83 12
v 84 31
v 85 8
v 86 4
v 87 31
v 88 15
v 89 15
v 90 7
v 91 25
v 92 9
v 93 11
v 94 24
v 95 24
v 96 29
v 97 23
v 98 7
v 99 8
v 100 18
v 101 30
v 102 20
v 103 16
v 104 8
v 105 17
v 106 9
v 107 26
v 108 4
v 109 30
v 110 16
v 111 11
v 112 19
v 113 24
v 114 14
v 115 10
v 116 23
v 117 5
v 118 6
v 119 21
v 120 17
v 121 7
v 122 24
v 123 29
v 124 2
v 125 1
v 126 21
v 127 27
v 128 9
v 129 3
v 130 11
v 131 16
v 132 18
v 133 15
v 134 2
v 135 0
v 136 18
v 137 0
v 138 12
v 139 19
v 140 10
v 141 16
v 142 13
v 143 21
v 144 7
v 145 1
v 146 4
v 147 8
v 148 21
v 149 26
v 150 25
v 151 21
v 152 24
v 153 4
v 154 31
v 155 13
v 156 22
v 157 7
v 158 22
v 159 29
v 160 8
v 161 6
v 162 30
v 163 11
v 164 19
v 165 27
v 166 17
v 167 29
v 168 29
v 169 4
v 170 14
v 171 20
v 172 5
v 173 0
v 174 15
v 175 1
v 176 3
v 177 25
v 178 6
v 179 27
v 180 12
v 181 20
v 182 27
v 183 25
v 184 9
v 185 8
v 186 3
v 187 22
v 188 0
v 189 26
v 190 16
v 191 12
v 192 9
v 193 15
v 194 18
v 195 6
v 196 2
v 197 0
v 198 3
v 199 25
v 200 17
v 201 30
v 202 7
v 203 2
v 204 22
v 205 16
v 206 2
v 207 16
v 208 28
v 209 1
v 210 16
v 211 25
v 212 29
v 213 22
v 214 1
v 215 15
v 216 8
v 217 8
v 218 12
v 219 23
v 220 1
v 221 11
v 222 13
v 223 30
v 224 8
v 225 21
v 226 4
v 227 24
v 228 2
v 229 28
v 230 9
v 231 18
v 232 20
v 233 8
v 234 1
v 235 21
v 236 27
v 237 30
v 238 0
v 239 6
v 240 20
v 241 1
v 242 4
v 243 18
v 244 6
v 245 5
v 246 14
v 247 5
v 248 31
v 249 15
v 250 4
v 251 30
v 252 16
v 253 16
v 254 13
v 255 21
v 256 26
v 257 14
v 258 24
v 259 1
v 260 0
v 261 20
v 262 7
v 263 30
v 264 26
v 265 21
v 266 18
v 267 1
v 268 13
v 269 9
v 270 17
v 271 18
v 272 25
v 273 23
v 274 12
v 275 25
v 276 13
v 277 20
v 278 18
v 279 4
v 280 4
v 281 21
v 282 29
v 283 23
v 284 18
v 285 22
v 286 5
v 287 17
v 288 23
v 289 2
v 290 10
v 291 9
v 292 21
v 293 12
v 294 21
v 295 15
v 296 21
v 297 10
v 298 22
v 299 10
v 300 25
v 301 2
v 302 15
v 303 20
v 304 7
v 305 19
v 306 9
v 307 21
v 308 17
v 309 16
v 310 21
v 311 0
v 312 11
v 313 29
v 314 25
v 315 13
v 316 7
v 317 2
v 318 11
v 319 28
v 320 23
v 321 27
v 322 15
v 323 20
v 324 16
v 325 14
v 326 7
v 327 18
v 328 30
v 329 15
v 330 23
v 331 10
v 332 20
v 333 18
v 334 20
v 335 18
v 336 26
v 337 1
v 338 2
v 339 13
v 340 9
v 341 15
v 342 3
v 343 24
v 344 4
v 345 2
v 346 19
v 347 5
v 348 16
v 349 20
v 350 26
v 351 1
v 352 23
v 353 13
v 354 15
v 355 14
v 356 19
v 357 2
v 358 18
v 359 20
v 360 1
v 361 9
v 362 22
v 363 0
v 364 4
v 365 12
v 366 13
v 367 29
v 368 16
v 369 22
v 370 6
v 371 20
v 372 7
v 373 9
v 374 21
v 375 15
v 376 17
v 377 19
v 378 17
v 379 15
v 380 30
v 381 26
v 382 15
v 383 11
v 384 2
v 385 5
v 386 6
v 387 21
v 388 4
v 389 5
v 390 9
v 391 14
v 392 5
v 393 7
v 394 25
v 395 10
v 396 2
v 397 25
v 398 12
v 399 19
v 400 6
v 401 5
v 402 1
v 403 24
v 404 2
v 405 5
v 406 20
v 407 26
v 408 13
v 409 7
v 410 11
v 411 17
v 412 3
v 413 25
v 414 3
v 415 22
v 416 7
v 417 5
v 418 6
v 419 26
v 420 4
v 421 17
v 422 13
v 423 6
v 424 21
v 425 13
v 426 6
v 427 7
v 428 23
v 429 21
v 430 16
v 431 12
v 432 30
v 433 17
v 434 15
v 435 10
v 436 6
v 437 12
v 438 6
v 439 7
v 440 18
v 441 20
v 442 10
v 443 21
v 444 29
v 445 23
v 446 31
v 447 0
v 448 8
v 449 6
v 450 18
v 451 24
v 452 4
v 453 3
v 454 3
v 455 10
v 456 22
v 457 17
v 458 14
v 459 4
v 460 12
v 461 16
v 462 27
v 463 1
v 464 9
v 465 5
v 466 16
v 467 1
v 468 3
v 469 31
v 470 0
v 471 18
v 472 19
v 473 15
v 474 12
v 475 1
v 476 6
v 477 8
v 478 27
v 479 3
v 480 20
v 481 28
v 482 19
v 483 0
v 484 14
v 485 20
v 486 21
v 487 22
v 488 14
v 489 2
v 490 27
v 491 27
v 492 9
v 493 10
v 494 14
v 495 24
v 496 26
v 497 9
v 498 7
v 499 13
v 500 3
v 501 14
v 502 10
v 503 9
v 504 1
v 505 4
v 506 1
v 507 12
v 508 20
v 509 16
v 510 1
v 511 7
v 512 20
v 513 26
v 514 17
v 515 3
v 516 21
v 517 18
v 518 12
v 519 26
v 520 2
v 521 14
v 522 10
v 523 11
v 524 12
v 525 8
v 526 7
v 527 0
v 528 7
v 529 13
v 530 14
v 531 6
v 532 14
v 533 6
v 534 14
v 535 8
v 536 4
v 537 0
v 538 29
v 539 2
v 540 29
v 541 1
v 542 13
v 543 28
v 544 27
v 545 12
v 546 5
v 547 11
v 548 23
v 549 22
v 550 16
v 551 28
v 552 7
v 553 28
v 554 17
v 555 27
v 556 13
v 557 9
v 558 27
v 559 5
v 560 16
v 561 2
v 562 8
v 563 14
v 564 26
v 565 9
v 566 8
v 567 17
v 568 3
v 569 29
v 570 18
v 571 18
v 572 14
v 573 7
v 574 4
v 575 25
v 576 11
v 577 7
v 578 30
v 579 17
v 580 9
v 581 27
v 582 10
v 583 5
v 584 11
v 585 2
v 586 19
v 587 22
v 588 9
v 589 18
v 590 18
v 591 28
v 592 26
v 593 12
v 594 1
v 595 25
v 596 16
v 597 15
v 598 6
v 599 24
v 600 28
v 601 14
v 602 1
v 603 18
v 604 8
v 605 28
v 606 8
v 607 20
v 608 6
v 609 10
v 610 21
v 611 23
v 612 22
v 613 0
v 614 14
v 615 7
v 616 27
v 617 24
v 618 25
v 619 14
v 620 7
v 621 17
v 622 19
v 623 1
v 624 8
v 625 18
v 626 13
v 627 11
v 628 13
v 629 1
v 630 12
v 631 7
v 632 15
v 633 19
v 634 24
v 635 14
v 636 2
v 637 23
v 638 10
v 639 15
v 640 23
v 641 1
v 642 3
v 643 8
v 644 4
v 645 20
v 646 31
v 647 27
v 648 19
v 649 7
v 650 32
v 651 12
v 652 4
v 653 6
v 654 12
v 655 19
v 656 25
v 657 2
v 658 11
v 659 5
v 660 0
v 661 4
v 662 11
v 663 6
v 664 1
v 665 10
v 666 25
v 667 9
v 668 22
v 669 27
v 670 26
v 671 14
v 672 20
v 673 31
v 674 21
v 675 25
v 676 11
v 677 19
v 678 6
v 679 14
v 680 18
v 681 9
v 682 30
v 683 3
v 684 8
v 685 28
v 686 7
v 687 27
v 688 13
v 689 16
v 690 26
v 691 0
v 692 10
v 693 19
v 694 9
v 695 22
v 696 8
v 697 19
v 698 13
v 699 1
v 700 11
v 701 19
v 702 13
v 703 14
v 704 9
v 705 13
v 706 5
v 707 22
v 708 22
v 709 16
v 710 2
v 711 15
v 712 20
v 713 16
v 714 18
v 715 25
v 716 29
v 717 20
v 718 6
v 719 24
v 720 23
v 721 12
v 722 8
v 723 12
v 724 0
v 725 20
v 726 27
v 727 28
v 728 16
v 729 0
v 730 8
v 731 19
v 732 23
v 733 14
v 734 12
v 735 22
v 736 7
v 737 24
v 738 1
v 739 31
v 740 3
v 741 17
v 742 21
v 743 13
v 744 16
v 745 11
v 746 14
v 747 25
v 748 29
v 749 23
v 750 3
v 751 17
v 752 28
v 753 12
v 754 12
v 755 14
v 756 15
v 757 8
v 758 25
v 759 20
v 760 19
v 761 5
v 762 11
v 763 23
v 764 16
v 765 29
v 766 0
v 767 9
v 768 3
v 769 31
v 770 25
v 771 12
v 772 12
v 773 2
v 774 7
v 775 2
v 776 0
v 777 19
v 778 22
v 779 12
v 780 14
v 781 20
v 782 13
v 783 19
v 784 19
v 785 3
v 786 0
v 787 6
v 788 3
v 789 31
v 790 9
v 791 32
v 792 29
v 793 21
v 794 11
v 795 25
v 796 26
v 797 20
v 798 19
v 799 10
v 800 22
v 801 22
v 802 3
v 803 24
v 804 28
v 805 21
v 806 7
v 807 16
v 808 26
v 809 14
v 810 17
v 811 25
v 812 32
v 813 3
v 814 25
v 815 3
v 816 6
v 817 21
v 818 13
v 819 3
v 820 13
v 821 20
v 822 27
v 823 11
v 824 2
v 825 1
v 826 2
v 827 0
v 828 15
v 829 9
v 830 6
v 831 25
v 832 3
v 833 28
v 834 21
v 835 10
v 836 23
v 837 12
v 838 1
v 839 4
v 840 1
v 841 4
v 842 23
v 843 28
v 844 19
v 845 28
v 846 15
v 847 5
v 848 6
v 849 9
v 850 23
v 851 17
v 852 0
v 853 24
v 854 1
v 855 27
v 856 2
v 857 17
v 858 26
v 859 5
v 860 5
v 861 33
v 862 24
v 863 14
v 864 12
v 865 10
v 866 3
v 867 23
v 868 5
v 869 26
v 870 3
v 871 24
v 872 10
v 873 4
v 874 24
v 875 6
v 876 1
v 877 22
v 878 14
v 879 23
v 880 10
v 881 18
v 882 32
v 883 8
v 884 25
v 885 23
v 886 7
v 887 22
v 888 6
v 889 11
v 890 27
v 891 4
v 892 6
v 893 18
v 894 1
v 895 24
v 896 0
v 897 26
v 898 10
v 899 21
v 900 19
v 901 18
v 902 4
v 903 20
v 904 0
v 905 0
v 906 12
v 907 11
v 908 31
v 909 3
v 910 8
v 911 22
v 912 6
v 913 13
v 914 7
v 915 6
v 916 4
v 917 28
v 918 3
v 919 6
v 920 25
v 921 22
v 922 11
v 923 20
v 924 26
v 925 24
v 926 26
v 927 12
v 928 6
v 929 13
v 930 14
v 931 9
v 932 0
v 933 23
v 934 22
v 935 16
v 936 4
v 937 19
v 938 9
v 939 9
v 940 2
v 941 4
v 942 8
v 943 8
v 944 9
v 945 11
v 946 30
v 947 24
v 948 5
v 949 10
v 950 13
v 951 26
v 952 15
v 953 20
v 954 19
v 955 21
v 956 14
v 957 23
v 958 15
v 959 11
v 960 17
v 961 1
v 962 3
v 963 9
v 964 28
v 965 5
v 966 20
v 967 6
v 968 2
v 969 19
v 970 10
v 971 18
v 972 21
v 973 23
v 974 24
v 975 0
v 976 4
v 977 3
v 978 4
v 979 14
v 980 22
v 981 27
v 982 31
v 983 11
v 984 14
v 985 16
v 986 20
v 987 0
v 988 1
v 989 15
v 990 7
v 991 1
v 992 15
v 993 7
v 994 24
v 995 0
v 996 7
v 997 17
v 998 30
v 999 27
v 1000 23
v 1001 27
v 1002 4
v 1003 25
v 1004 19
v 1005 10
v 1006 15
v 1007 11
v 1008 8
v 1009 7
v 1010 17
v 1011 13
v 1012 22
v 1013 6
v 1014 3
v 1015 8
v 1016 5
v 1017 27
v 1018 23
v 1019 12
v 1020 22
v 1021 12
v 1022 7
v 1023 17
v 1024 19
v 1025 0
v 1026 7
v 1027 17
v 1028 9
v 1029 12
v 1030 10
v 1031 27
v 1032 0
v 1033 9
v 1034 24
v 1035 0
v 1036 17
v 1037 2
v 1038 9
v 1039 6
v 1040 1
v 1041 10
v 1042 14
v 1043 5
v 1044 17
v 1045 19
v 1046 13
v 1047 11
v 1048 16
v 1049 17
v 1050 31
v 1051 24
v 1052 9
v 1053 9
v 1054 19
v 1055 14
v 1056 14
v 1057 18
v 1058 27
v 1059 2
v 1060 3
v 1061 26
v 1062 19
v 1063 5
v 1064 16
v 1065 26
v 1066 9
v 1067 1
v 1068 1
v 1069 10
v 1070 28
v 1071 16
v 1072 11
v 1073 5
v 1074 12
v 1075 22
v 1076 10
v 1077 8
v 1078 5
v 1079 4
v 1080 12
v 1081 7
v 1082 10
v 1083 15
v 1084 10
v 1085 15
v 1086 18
v 1087 4
v 1088 19
v 1089 4
v 1090 2
v 1091 16
v 1092 0
v 1093 23
v 1094 2
v 1095 19
v 1096 22
v 1097 28
v 1098 19
v 1099 8
v 1100 29
v 1101 24
v 1102 15
v 1103 29
v 1104 2
v 1105 14
v 1106 22
v 1107 8
v 1108 2
v 1109 23
v 1110 10
v 1111 8
v 1112 22
v 1113 24
v 1114 5
v 1115 10
v 1116 31
v 1117 0
v 1118 24
v 1119 13
v 1120 15
v 1121 12
v 1122 6
v 1123 28
v 1124 23
v 1125 18
v 1126 21
v 1127 31
v 1128 32
v 1129 3
v 1130 8
v 1131 16
v 1132 12
v 1133 22
v 1134 3
v 1135 23
v 1136 7
v 1137 14
v 1138 0
v 1139 1
v 1140 20
v 1141 27
v 1142 3
v 1143 26
v 1144 15
v 1145 6
v 1146 2
v 1147 17
v 1148 6
v 1149 13
v 1150 17
v 1151 6
v 1152 21
v 1153 14
v 1154 8
v 1155 26
v 1156 28
v 1157 19
v 1158 13
v 1159 7
v 1160 24
v 1161 0
v 1162 29
v 1163 11
v 1164 4
v 1165 3
v 1166 21
v 1167 25
v 1168 5
v 1169 18
v 1170 19
v 1171 22
v 1172 4
v 1173 25
v 1174 3
v 1175 26
v 1176 0
v 1177 28
v 1178 17
v 1179 6
v 1180 3
v 1181 11
v 1182 15
v 1183 27
v 1184 25
v 1185 5
v 1186 20
v 1187 24
v 1188 13
v 1189 16
v 1190 33
v 1191 18
v 1192 16
v 1193 14
v 1194 25
v 1195 11
v 1196 0
v 1197 23
v 1198 7
v 1199 23
v 1200 13
v 1201 6
v 1202 20
v 1203 27
v 1204 16
v 1205 16
v 1206 29
v 1207 23
v 1208 7
v 1209 12
v 1210 11
v 1211 2
v 1212 16
v 1213 3
v 1214 4
v 1215 6
v 1216 16
v 1217 8
v 1218 30
v 1219 11
v 1220 17
v 1221 29
v 1222 18
v 1223 9
v 1224 5
v 1225 10
v 1226 24
v 1227 13
v 1228 14
v 1229 11
v 1230 1
v 1231 4
v 1232 21
v 1233 11
v 1234 8
v 1235 11
v 1236 6
v 1237 7
v 1238 16
v 1239 19
v 1240 19
v 1241 5
v 1242 26
v 1243 22
v 1244 8
v 1245 15
v 1246 16
v 1247 20
v 1248 22
v 1249 20
v 1250 8
v 1251 11
v 1252 25
v 1253 22
v 1254 28
v 1255 12
v 1256 5
v 1257 8
v 1258 21
v 1259 0
v 1260 9
v 1261 25
v 1262 17
v 1263 18
v 1264 27
v 1265 24
v 1266 0
v 1267 5
v 1268 23
v 1269 16
v 1270 15
v 1271 18
v 1272 13
v 1273 4
v 1274 24
v 1275 18
v 1276 6
v 1277 22
v 1278 28
v 1279 30
v 1280 19
v 1281 5
v 1282 29
v 1283 4
